14
0 7 5 10 0 0 11 0 6 5 9 0 8 13
2 0 15 0 9 0 0 12 5 8 0 0 10 6
0 3 0 7 0 10 8 4 8 0 0 13 9 0
10 0 5 0 9 12 0 0 0 0 14 4 8 7
0 9 0 3 0 11 0 6 4 0 0 0 0 13
6 0 8 0 5 0 9 10 0 4 5 8 0 11
0 5 0 6 0 8 0 9 0 0 11 0 7 4
13 6 0 8 9 0 9 0 3 5 12 0 0 4
6 8 7 0 4 0 11 3 0 8 7 5 0 9
5 0 9 10 0 4 0 4 8 0 5 0 13 9
5 0 6 14 0 5 0 8 9 7 0 4 0 8
7 0 13 4 0 8 10 0 5 0 4 0 8 0
0 8 0 8 0 11 7 0 0 6 9 8 0 2
8 5 0 7 10 9 0 4 0 9 0 0 0 0
60
0 9 5 6 12 13 7 8 4 3 11 10 2 1 0

